c nombre: 35
c densidad: 0.3
p edges 60 533
e 1 2
e 1 3
e 1 14
e 1 15
e 1 27
e 1 30
e 1 36
e 1 44
e 1 45
e 1 46
e 1 47
e 1 57
e 2 4
e 2 6
e 2 7
e 2 8
e 2 11
e 2 13
e 2 14
e 2 16
e 2 19
e 2 21
e 2 28
e 2 32
e 2 40
e 2 41
e 2 44
e 2 45
e 2 47
e 2 56
e 2 59
e 3 5
e 3 10
e 3 21
e 3 22
e 3 26
e 3 27
e 3 29
e 3 30
e 3 32
e 3 35
e 3 48
e 3 50
e 3 53
e 3 56
e 4 8
e 4 9
e 4 15
e 4 19
e 4 24
e 4 30
e 4 31
e 4 35
e 4 36
e 4 39
e 4 51
e 4 60
e 5 13
e 5 17
e 5 23
e 5 27
e 5 29
e 5 30
e 5 32
e 5 34
e 5 35
e 5 40
e 5 47
e 5 49
e 5 50
e 5 51
e 5 55
e 5 57
e 6 13
e 6 14
e 6 16
e 6 18
e 6 20
e 6 22
e 6 27
e 6 28
e 6 32
e 6 33
e 6 37
e 6 38
e 6 40
e 6 44
e 6 47
e 6 52
e 6 54
e 6 55
e 7 8
e 7 9
e 7 10
e 7 11
e 7 14
e 7 15
e 7 20
e 7 21
e 7 23
e 7 25
e 7 29
e 7 35
e 7 36
e 7 37
e 7 38
e 7 39
e 7 41
e 7 51
e 7 52
e 7 53
e 7 54
e 7 58
e 7 59
e 8 11
e 8 13
e 8 18
e 8 22
e 8 32
e 8 33
e 8 37
e 8 40
e 8 42
e 8 48
e 8 50
e 8 52
e 8 55
e 8 57
e 8 59
e 8 60
e 9 11
e 9 13
e 9 14
e 9 17
e 9 23
e 9 24
e 9 39
e 9 43
e 9 51
e 9 52
e 9 54
e 9 55
e 9 57
e 10 13
e 10 14
e 10 17
e 10 29
e 10 30
e 10 31
e 10 33
e 10 39
e 10 41
e 10 44
e 10 45
e 10 53
e 10 60
e 11 12
e 11 19
e 11 21
e 11 27
e 11 28
e 11 32
e 11 33
e 11 37
e 11 38
e 11 40
e 11 45
e 11 47
e 11 50
e 11 54
e 11 56
e 12 13
e 12 14
e 12 16
e 12 18
e 12 20
e 12 24
e 12 25
e 12 28
e 12 30
e 12 31
e 12 36
e 12 39
e 12 43
e 12 49
e 12 53
e 12 56
e 12 57
e 12 59
e 13 15
e 13 23
e 13 31
e 13 36
e 13 42
e 13 44
e 13 46
e 13 50
e 13 51
e 13 52
e 13 55
e 13 57
e 14 16
e 14 17
e 14 18
e 14 21
e 14 23
e 14 26
e 14 35
e 14 36
e 14 45
e 14 46
e 14 49
e 14 53
e 14 55
e 14 57
e 14 58
e 15 18
e 15 20
e 15 27
e 15 31
e 15 37
e 15 38
e 15 40
e 15 43
e 15 51
e 15 53
e 15 60
e 16 21
e 16 28
e 16 35
e 16 36
e 16 38
e 16 40
e 16 41
e 16 45
e 16 49
e 16 54
e 16 56
e 17 23
e 17 24
e 17 28
e 17 30
e 17 31
e 17 35
e 17 36
e 17 40
e 17 41
e 17 43
e 17 45
e 17 49
e 17 50
e 17 52
e 17 53
e 17 54
e 17 56
e 17 58
e 17 59
e 17 60
e 18 20
e 18 28
e 18 32
e 18 33
e 18 34
e 18 36
e 18 37
e 18 38
e 18 41
e 18 50
e 18 52
e 18 55
e 18 60
e 19 20
e 19 24
e 19 25
e 19 27
e 19 29
e 19 30
e 19 33
e 19 34
e 19 35
e 19 37
e 19 39
e 19 42
e 19 43
e 19 47
e 19 51
e 19 59
e 20 23
e 20 25
e 20 27
e 20 28
e 20 30
e 20 35
e 20 38
e 20 42
e 20 43
e 20 44
e 20 50
e 20 52
e 20 54
e 20 56
e 20 58
e 20 60
e 21 25
e 21 32
e 21 33
e 21 36
e 21 38
e 21 39
e 21 40
e 21 44
e 21 46
e 21 47
e 21 50
e 21 55
e 21 60
e 22 30
e 22 31
e 22 32
e 22 33
e 22 36
e 22 41
e 22 42
e 22 43
e 22 48
e 22 50
e 22 51
e 22 52
e 22 53
e 22 57
e 23 24
e 23 28
e 23 31
e 23 32
e 23 36
e 23 38
e 23 39
e 23 47
e 23 48
e 23 51
e 23 54
e 23 57
e 24 30
e 24 33
e 24 36
e 24 39
e 24 42
e 24 50
e 24 56
e 24 57
e 24 58
e 25 26
e 25 27
e 25 40
e 25 42
e 25 52
e 25 60
e 26 32
e 26 36
e 26 39
e 26 40
e 26 42
e 26 43
e 26 44
e 26 45
e 26 46
e 26 49
e 26 50
e 26 52
e 26 53
e 26 60
e 27 31
e 27 35
e 27 49
e 27 57
e 28 29
e 28 30
e 28 31
e 28 38
e 28 40
e 28 44
e 28 50
e 28 54
e 28 55
e 29 34
e 29 39
e 29 45
e 29 48
e 29 49
e 29 50
e 30 33
e 30 40
e 30 44
e 30 48
e 30 51
e 30 53
e 30 55
e 30 57
e 30 60
e 31 40
e 31 41
e 31 45
e 31 47
e 31 52
e 31 57
e 31 58
e 32 34
e 32 41
e 32 42
e 32 44
e 32 46
e 32 47
e 32 48
e 32 50
e 33 34
e 33 36
e 33 42
e 33 44
e 33 46
e 33 52
e 34 42
e 34 50
e 34 55
e 34 58
e 35 37
e 35 38
e 35 40
e 35 43
e 35 47
e 35 49
e 35 54
e 35 55
e 36 40
e 36 44
e 36 46
e 36 47
e 36 49
e 36 50
e 36 54
e 36 56
e 36 60
e 37 45
e 37 48
e 37 52
e 37 55
e 38 43
e 38 54
e 38 57
e 38 60
e 39 43
e 39 44
e 39 48
e 39 49
e 39 50
e 39 51
e 39 53
e 39 57
e 39 58
e 39 60
e 40 44
e 40 47
e 40 50
e 40 51
e 40 53
e 40 57
e 40 58
e 40 59
e 41 42
e 41 43
e 41 44
e 41 49
e 41 55
e 41 57
e 41 59
e 42 56
e 42 57
e 42 59
e 43 44
e 43 45
e 43 47
e 43 57
e 43 58
e 43 59
e 44 48
e 44 49
e 44 50
e 44 51
e 44 54
e 44 57
e 44 60
e 45 50
e 45 53
e 45 54
e 45 55
e 45 57
e 45 58
e 45 60
e 46 50
e 46 53
e 46 56
e 46 57
e 46 59
e 47 51
e 47 52
e 47 53
e 47 58
e 47 60
e 48 54
e 48 55
e 49 50
e 49 52
e 49 53
e 49 54
e 49 55
e 50 54
e 50 55
e 50 58
e 50 59
e 51 54
e 51 55
e 52 55
e 52 56
e 52 59
e 54 57
e 54 59
e 55 56
e 55 57
e 55 59
e 55 60
e 56 59
e 56 60
e 58 60
e 59 60
